p cnf 18 37
-4 -11 -14 0
4 5 -11 0
5 6 -8 0
-1 -4 -7 0
-12 14 -18 0
4 -15 -16 0
6 15 18 0
4 13 -17 0
9 -10 17 0
-4 11 14 0
3 5 -17 0
1 12 -15 0
-6 10 -14 0
8 -12 -18 0
-7 11 17 0
4 -5 8 0
-5 -11 -16 0
6 -11 -15 0
7 -13 -15 0
-5 9 -15 0
5 -17 -18 0
-2 -5 17 0
-3 12 15 0
11 12 -15 0
-2 12 17 0
-6 -17 -18 0
4 8 17 0
-15 -16 17 0
3 -9 -12 0
2 -8 10 0
-10 -15 18 0
4 -5 -14 0
9 -14 15 0
-2 11 -16 0
-1 8 11 0
-2 9 17 0
-2 13 18 0
